; PUSH cw_4 PUSH cw_5 PUSH cw_4 PUSH cw_4 SLOAD SWAP1 => PUSH cw_4 PUSH cw_5 DUP2 SLOAD DUP3
(set-option :produce-proofs true)
; 
(set-info :status unknown)
(declare-fun storage_t ((_ BitVec 256) (_ BitVec 256) (_ BitVec 256) Int (_ BitVec 256)) (_ BitVec 256))
(declare-fun w_5 () (_ BitVec 256))
(declare-fun w_4 () (_ BitVec 256))
(declare-fun storage_s ((_ BitVec 256) (_ BitVec 256) (_ BitVec 256) Int (_ BitVec 256)) (_ BitVec 256))
(declare-fun exc_halt_t (Int) Bool)
(declare-fun exc_halt_s (Int) Bool)
(declare-fun sc_t (Int) (_ BitVec 6))
(declare-fun stack_t ((_ BitVec 256) (_ BitVec 256) (_ BitVec 256) Int (_ BitVec 6)) (_ BitVec 256))
(declare-fun stack_s ((_ BitVec 256) (_ BitVec 256) (_ BitVec 256) Int (_ BitVec 6)) (_ BitVec 256))
(declare-fun sc_s (Int) (_ BitVec 6))
(declare-fun used_gas_t ((_ BitVec 256) (_ BitVec 256) (_ BitVec 256) Int) Int)
(declare-fun used_gas_s ((_ BitVec 256) (_ BitVec 256) (_ BitVec 256) Int) Int)
(assert
 (exists ((x_SLOAD_0 (_ BitVec 256)) )(let (($x3605 (forall ((w (_ BitVec 256)) )(let ((?x453 (storage_t x_SLOAD_0 w_4 w_5 5 w)))
 (let ((?x1315 (storage_s x_SLOAD_0 w_4 w_5 6 w)))
 (= ?x1315 ?x453))))
 ))
 (let (($x886 (exc_halt_t 5)))
 (let (($x772 (exc_halt_s 6)))
 (let (($x889 (= $x772 $x886)))
 (let (($x4020 (forall ((n (_ BitVec 6)) )(let ((?x919 (sc_t 5)))
 (let (($x9327 (bvsle ?x919 n)))
 (let ((?x426 (stack_t x_SLOAD_0 w_4 w_5 5 n)))
 (let ((?x1312 (stack_s x_SLOAD_0 w_4 w_5 6 n)))
 (let (($x1313 (= ?x1312 ?x426)))
 (or $x1313 $x9327)))))))
 ))
 (let ((?x919 (sc_t 5)))
 (let ((?x926 (sc_s 6)))
 (let (($x929 (= ?x926 ?x919)))
 (let ((?x3482 (used_gas_t x_SLOAD_0 w_4 w_5 0)))
 (let ((?x3750 (used_gas_s x_SLOAD_0 w_4 w_5 0)))
 (let (($x3751 (= ?x3750 ?x3482)))
 (let (($x3764 (forall ((w (_ BitVec 256)) )(let ((?x3754 (storage_t x_SLOAD_0 w_4 w_5 0 w)))
 (let ((?x3756 (storage_s x_SLOAD_0 w_4 w_5 0 w)))
 (= ?x3756 ?x3754))))
 ))
 (let (($x56 (exc_halt_t 0)))
 (let (($x57 (exc_halt_s 0)))
 (let (($x58 (= $x57 $x56)))
 (let (($x3935 (forall ((n (_ BitVec 6)) )(let ((?x1310 (stack_t x_SLOAD_0 w_4 w_5 0 n)))
 (let ((?x3766 (stack_s x_SLOAD_0 w_4 w_5 0 n)))
 (let (($x3767 (= ?x3766 ?x1310)))
 (let ((?x63 (sc_t 0)))
 (let (($x3168 (bvsle ?x63 n)))
 (or $x3168 $x3767)))))))
 ))
 (let ((?x63 (sc_t 0)))
 (let ((?x72 (sc_s 0)))
 (let (($x73 (= ?x72 ?x63)))
 (let (($x9842 (exc_halt_t 4)))
 (let (($x5465 (not (bvsle (_ bv0 6) (bvadd (_ bv61 6) (sc_t 4))))))
 (let (($x3983 (or (not (= ((_ extract 6 6) (bvadd (_ bv1 7) (concat (_ bv0 1) (sc_t 4)))) (_ bv0 1))) $x5465 $x9842)))
 (let (($x796 (forall ((w (_ BitVec 256)) )(let ((?x3752 (storage_t x_SLOAD_0 w_4 w_5 4 w)))
 (let ((?x453 (storage_t x_SLOAD_0 w_4 w_5 5 w)))
 (= ?x453 ?x3752))))
 ))
 (let (($x4013 (forall ((n (_ BitVec 6)) )(let ((?x9923 (sc_t 4)))
 (let ((?x5650 (bvadd (_ bv61 6) ?x9923)))
 (let (($x5433 (bvsle ?x5650 n)))
 (let ((?x3577 (stack_t x_SLOAD_0 w_4 w_5 4 n)))
 (let ((?x426 (stack_t x_SLOAD_0 w_4 w_5 5 n)))
 (or (= ?x426 ?x3577) $x5433)))))))
 ))
 (let (($x4016 (= (used_gas_t x_SLOAD_0 w_4 w_5 5) (+ 3 (used_gas_t x_SLOAD_0 w_4 w_5 4)))))
 (let ((?x9923 (sc_t 4)))
 (let ((?x1416 (bvadd (_ bv63 6) ?x9923)))
 (let ((?x3893 (stack_t x_SLOAD_0 w_4 w_5 4 ?x1416)))
 (let (($x4037 (= (stack_t x_SLOAD_0 w_4 w_5 5 (bvadd (_ bv62 6) ?x9923)) (stack_t x_SLOAD_0 w_4 w_5 4 (bvadd (_ bv62 6) ?x9923)))))
 (let ((?x5650 (bvadd (_ bv61 6) ?x9923)))
 (let ((?x4079 (stack_t x_SLOAD_0 w_4 w_5 4 ?x5650)))
 (let (($x4083 (= $x9842 (or (exc_halt_t 3) (not (bvsle (_ bv0 6) (bvadd (_ bv63 6) (sc_t 3))))))))
 (let (($x3704 (forall ((w (_ BitVec 256)) )(let ((?x1267 (storage_t x_SLOAD_0 w_4 w_5 3 w)))
 (let ((?x3752 (storage_t x_SLOAD_0 w_4 w_5 4 w)))
 (= ?x3752 ?x1267))))
 ))
 (let (($x4128 (forall ((n (_ BitVec 6)) )(let ((?x3788 (stack_t x_SLOAD_0 w_4 w_5 3 n)))
 (let ((?x3577 (stack_t x_SLOAD_0 w_4 w_5 4 n)))
 (or (= ?x3577 ?x3788) (bvsle (bvadd (_ bv63 6) (sc_t 3)) n)))))
 ))
 (let ((?x2012 (sc_t 3)))
 (let (($x4459 (= ?x9923 ?x2012)))
 (let ((?x3770 (used_gas_t x_SLOAD_0 w_4 w_5 4)))
 (let ((?x8131 (bvadd (_ bv63 6) ?x2012)))
 (let ((?x1042 (stack_t x_SLOAD_0 w_4 w_5 3 ?x8131)))
 (let (($x9360 (not (= ((_ extract 6 6) (bvadd (_ bv1 7) (concat (_ bv0 1) (sc_t 2)))) (_ bv0 1)))))
 (let (($x6017 (not (bvsle (_ bv0 6) (bvadd (_ bv62 6) (sc_t 2))))))
 (let (($x903 (exc_halt_t 2)))
 (let (($x9995 (exc_halt_t 3)))
 (let (($x5986 (= $x9995 (or $x903 $x6017 $x9360))))
 (let (($x3887 (forall ((w (_ BitVec 256)) )(let ((?x3490 (storage_t x_SLOAD_0 w_4 w_5 2 w)))
 (let ((?x1267 (storage_t x_SLOAD_0 w_4 w_5 3 w)))
 (= ?x1267 ?x3490))))
 ))
 (let (($x3885 (forall ((n (_ BitVec 6)) )(let ((?x4056 (sc_t 2)))
 (let ((?x7767 (bvadd (_ bv62 6) ?x4056)))
 (let (($x6029 (bvsle ?x7767 n)))
 (let ((?x3531 (stack_t x_SLOAD_0 w_4 w_5 2 n)))
 (let ((?x3788 (stack_t x_SLOAD_0 w_4 w_5 3 n)))
 (or (= ?x3788 ?x3531) $x6029)))))))
 ))
 (let (($x9381 (= ?x2012 (bvadd (_ bv1 6) (sc_t 2)))))
 (let ((?x3804 (used_gas_t x_SLOAD_0 w_4 w_5 3)))
 (let (($x1048 (= (stack_t x_SLOAD_0 w_4 w_5 3 (bvadd (_ bv63 6) (sc_t 2))) (stack_t x_SLOAD_0 w_4 w_5 2 (bvadd (_ bv63 6) (sc_t 2))))))
 (let ((?x4056 (sc_t 2)))
 (let ((?x7767 (bvadd (_ bv62 6) ?x4056)))
 (let ((?x1045 (stack_t x_SLOAD_0 w_4 w_5 2 ?x7767)))
 (let (($x9370 (not (= ((_ extract 6 6) (bvadd (_ bv1 7) (concat (_ bv0 1) (sc_t 1)))) (_ bv0 1)))))
 (let (($x1920 (exc_halt_t 1)))
 (let (($x9136 (= $x903 (or $x1920 $x9370))))
 (let (($x3888 (forall ((w (_ BitVec 256)) )(let ((?x3812 (storage_t x_SLOAD_0 w_4 w_5 1 w)))
 (let ((?x3490 (storage_t x_SLOAD_0 w_4 w_5 2 w)))
 (= ?x3490 ?x3812))))
 ))
 (let (($x3916 (forall ((n (_ BitVec 6)) )(let ((?x4023 (sc_t 1)))
 (let (($x9379 (bvsle ?x4023 n)))
 (let ((?x3818 (stack_t x_SLOAD_0 w_4 w_5 1 n)))
 (let ((?x3531 (stack_t x_SLOAD_0 w_4 w_5 2 n)))
 (or (= ?x3531 ?x3818) $x9379))))))
 ))
 (let (($x9397 (= ?x4056 (bvadd (_ bv1 6) (sc_t 1)))))
 (let ((?x4107 (used_gas_t x_SLOAD_0 w_4 w_5 2)))
 (let (($x9385 (= $x1920 (or $x56 (not (= ((_ extract 6 6) (bvadd (_ bv1 7) (concat (_ bv0 1) ?x63))) (_ bv0 1)))))))
 (let (($x3922 (forall ((w (_ BitVec 256)) )(let ((?x3754 (storage_t x_SLOAD_0 w_4 w_5 0 w)))
 (let ((?x3812 (storage_t x_SLOAD_0 w_4 w_5 1 w)))
 (= ?x3812 ?x3754))))
 ))
 (let (($x3917 (forall ((n (_ BitVec 6)) )(let ((?x1310 (stack_t x_SLOAD_0 w_4 w_5 0 n)))
 (let ((?x3818 (stack_t x_SLOAD_0 w_4 w_5 1 n)))
 (let ((?x63 (sc_t 0)))
 (let (($x3168 (bvsle ?x63 n)))
 (or $x3168 (= ?x3818 ?x1310)))))))
 ))
 (let ((?x4023 (sc_t 1)))
 (let (($x9527 (= ?x4023 (bvadd (_ bv1 6) ?x63))))
 (let (($x6160 (= $x772 (or (exc_halt_s 5) (not (bvsle (_ bv0 6) (bvadd (_ bv62 6) (sc_s 5))))))))
 (let (($x3903 (forall ((w (_ BitVec 256)) )(let ((?x3832 (storage_s x_SLOAD_0 w_4 w_5 5 w)))
 (let ((?x1315 (storage_s x_SLOAD_0 w_4 w_5 6 w)))
 (= ?x1315 ?x3832))))
 ))
 (let (($x3905 (forall ((n (_ BitVec 6)) )(let ((?x805 (sc_s 5)))
 (let ((?x9413 (bvadd (_ bv62 6) ?x805)))
 (let (($x6198 (bvsle ?x9413 n)))
 (let ((?x2269 (stack_s x_SLOAD_0 w_4 w_5 5 n)))
 (let ((?x1312 (stack_s x_SLOAD_0 w_4 w_5 6 n)))
 (or (= ?x1312 ?x2269) $x6198)))))))
 ))
 (let ((?x805 (sc_s 5)))
 (let (($x9404 (= ?x926 ?x805)))
 (let (($x3924 (= (used_gas_s x_SLOAD_0 w_4 w_5 6) (+ 3 (used_gas_s x_SLOAD_0 w_4 w_5 5)))))
 (let ((?x9439 (bvadd (_ bv63 6) ?x805)))
 (let ((?x30 (stack_s x_SLOAD_0 w_4 w_5 5 ?x9439)))
 (let (($x948 (= (stack_s x_SLOAD_0 w_4 w_5 6 (bvadd (_ bv63 6) ?x926)) (stack_s x_SLOAD_0 w_4 w_5 5 (bvadd (_ bv62 6) ?x805)))))
 (let (($x3979 (exc_halt_s 5)))
 (let (($x6915 (= $x3979 (or (exc_halt_s 4) (not (bvsle (_ bv0 6) (bvadd (_ bv63 6) (sc_s 4))))))))
 (let (($x4132 (forall ((w (_ BitVec 256)) )(let ((?x3870 (storage_s x_SLOAD_0 w_4 w_5 4 w)))
 (let ((?x3832 (storage_s x_SLOAD_0 w_4 w_5 5 w)))
 (= ?x3832 ?x3870))))
 ))
 (let (($x3688 (forall ((n (_ BitVec 6)) )(let ((?x4305 (sc_s 4)))
 (let ((?x8764 (bvadd (_ bv63 6) ?x4305)))
 (let (($x6907 (bvsle ?x8764 n)))
 (let ((?x3491 (stack_s x_SLOAD_0 w_4 w_5 4 n)))
 (let ((?x2269 (stack_s x_SLOAD_0 w_4 w_5 5 n)))
 (or (= ?x2269 ?x3491) $x6907)))))))
 ))
 (let ((?x4305 (sc_s 4)))
 (let (($x7713 (= ?x805 ?x4305)))
 (let ((?x3943 (used_gas_s x_SLOAD_0 w_4 w_5 5)))
 (let ((?x4116 (storage_s x_SLOAD_0 w_4 w_5 4 (stack_s x_SLOAD_0 w_4 w_5 4 (bvadd (_ bv63 6) ?x4305)))))
 (let (($x9460 (not (= ((_ extract 6 6) (bvadd (_ bv1 7) (concat (_ bv0 1) (sc_s 3)))) (_ bv0 1)))))
 (let (($x292 (exc_halt_s 3)))
 (let (($x64 (exc_halt_s 4)))
 (let (($x8748 (= $x64 (or $x292 $x9460))))
 (let (($x4098 (forall ((w (_ BitVec 256)) )(let ((?x13 (storage_s x_SLOAD_0 w_4 w_5 3 w)))
 (let ((?x3870 (storage_s x_SLOAD_0 w_4 w_5 4 w)))
 (= ?x3870 ?x13))))
 ))
 (let (($x4100 (forall ((n (_ BitVec 6)) )(let ((?x275 (sc_s 3)))
 (let (($x9464 (bvsle ?x275 n)))
 (let ((?x4212 (stack_s x_SLOAD_0 w_4 w_5 3 n)))
 (let ((?x3491 (stack_s x_SLOAD_0 w_4 w_5 4 n)))
 (or (= ?x3491 ?x4212) $x9464))))))
 ))
 (let (($x9465 (= ?x4305 (bvadd (_ bv1 6) (sc_s 3)))))
 (let ((?x4269 (used_gas_s x_SLOAD_0 w_4 w_5 4)))
 (let (($x9471 (not (= ((_ extract 6 6) (bvadd (_ bv1 7) (concat (_ bv0 1) (sc_s 2)))) (_ bv0 1)))))
 (let (($x247 (exc_halt_s 2)))
 (let (($x9469 (= $x292 (or $x247 $x9471))))
 (let (($x4114 (forall ((w (_ BitVec 256)) )(let ((?x286 (storage_s x_SLOAD_0 w_4 w_5 2 w)))
 (let ((?x13 (storage_s x_SLOAD_0 w_4 w_5 3 w)))
 (= ?x13 ?x286))))
 ))
 (let (($x2023 (forall ((n (_ BitVec 6)) )(let ((?x218 (sc_s 2)))
 (let (($x8743 (bvsle ?x218 n)))
 (let ((?x3879 (stack_s x_SLOAD_0 w_4 w_5 2 n)))
 (let ((?x4212 (stack_s x_SLOAD_0 w_4 w_5 3 n)))
 (or (= ?x4212 ?x3879) $x8743))))))
 ))
 (let ((?x275 (sc_s 3)))
 (let (($x9480 (= ?x275 (bvadd (_ bv1 6) (sc_s 2)))))
 (let ((?x504 (used_gas_s x_SLOAD_0 w_4 w_5 3)))
 (let (($x8036 (not (= ((_ extract 6 6) (bvadd (_ bv1 7) (concat (_ bv0 1) (sc_s 1)))) (_ bv0 1)))))
 (let (($x189 (exc_halt_s 1)))
 (let (($x8056 (= $x247 (or $x189 $x8036))))
 (let (($x4090 (forall ((w (_ BitVec 256)) )(let ((?x776 (storage_s x_SLOAD_0 w_4 w_5 1 w)))
 (let ((?x286 (storage_s x_SLOAD_0 w_4 w_5 2 w)))
 (= ?x286 ?x776))))
 ))
 (let (($x4086 (forall ((n (_ BitVec 6)) )(let ((?x154 (sc_s 1)))
 (let (($x8032 (bvsle ?x154 n)))
 (let ((?x1869 (stack_s x_SLOAD_0 w_4 w_5 1 n)))
 (let ((?x3879 (stack_s x_SLOAD_0 w_4 w_5 2 n)))
 (or (= ?x3879 ?x1869) $x8032))))))
 ))
 (let ((?x218 (sc_s 2)))
 (let (($x8027 (= ?x218 (bvadd (_ bv1 6) (sc_s 1)))))
 (let ((?x754 (used_gas_s x_SLOAD_0 w_4 w_5 2)))
 (let (($x9504 (= $x189 (or $x57 (not (= ((_ extract 6 6) (bvadd (_ bv1 7) (concat (_ bv0 1) ?x72))) (_ bv0 1)))))))
 (let (($x3719 (forall ((w (_ BitVec 256)) )(let ((?x3756 (storage_s x_SLOAD_0 w_4 w_5 0 w)))
 (let ((?x776 (storage_s x_SLOAD_0 w_4 w_5 1 w)))
 (= ?x776 ?x3756))))
 ))
 (let (($x3707 (forall ((n (_ BitVec 6)) )(let ((?x72 (sc_s 0)))
 (let (($x9266 (bvsle ?x72 n)))
 (let ((?x3766 (stack_s x_SLOAD_0 w_4 w_5 0 n)))
 (let ((?x1869 (stack_s x_SLOAD_0 w_4 w_5 1 n)))
 (or (= ?x1869 ?x3766) $x9266))))))
 ))
 (let ((?x154 (sc_s 1)))
 (let (($x8922 (= ?x154 (bvadd (_ bv1 6) ?x72))))
 (let (($x4061 (forall ((w (_ BitVec 256)) )(let ((?x880 (ite (= w (stack_s x_SLOAD_0 w_4 w_5 4 (bvadd (_ bv63 6) (sc_s 4)))) x_SLOAD_0 (_ bv0 256))))
 (let ((?x3756 (storage_s x_SLOAD_0 w_4 w_5 0 w)))
 (= ?x3756 ?x880))))
 ))
 (let (($x4049 (= ?x3750 0)))
 (let (($x5037 (not $x57)))
 (let (($x136 (= ?x72 (_ bv0 6))))
 (and $x136 $x5037 $x4049 $x4061 (= (stack_s x_SLOAD_0 w_4 w_5 1 ?x72) w_4) (= (used_gas_s x_SLOAD_0 w_4 w_5 1) (+ 3 ?x3750)) $x8922 $x3707 $x3719 $x9504 (= (stack_s x_SLOAD_0 w_4 w_5 2 ?x154) w_5) (= ?x754 (+ 3 (used_gas_s x_SLOAD_0 w_4 w_5 1))) $x8027 $x4086 $x4090 $x8056 (= (stack_s x_SLOAD_0 w_4 w_5 3 ?x218) w_4) (= ?x504 (+ 3 ?x754)) $x9480 $x2023 $x4114 $x9469 (= (stack_s x_SLOAD_0 w_4 w_5 4 ?x275) w_4) (= ?x4269 (+ 3 ?x504)) $x9465 $x4100 $x4098 $x8748 (= ?x30 ?x4116) (= ?x3943 (+ 200 ?x4269)) $x7713 $x3688 $x4132 $x6915 $x948 (= (stack_s x_SLOAD_0 w_4 w_5 6 (bvadd (_ bv62 6) ?x926)) ?x30) $x3924 $x9404 $x3905 $x3903 $x6160 (= (stack_t x_SLOAD_0 w_4 w_5 1 ?x63) w_4) (= (used_gas_t x_SLOAD_0 w_4 w_5 1) (+ 3 ?x3482)) $x9527 $x3917 $x3922 $x9385 (= (stack_t x_SLOAD_0 w_4 w_5 2 ?x4023) w_5) (= ?x4107 (+ 3 (used_gas_t x_SLOAD_0 w_4 w_5 1))) $x9397 $x3916 $x3888 $x9136 (= ?x1042 ?x1045) (= (stack_t x_SLOAD_0 w_4 w_5 3 ?x7767) ?x1045) $x1048 (= ?x3804 (+ 3 ?x4107)) $x9381 $x3885 $x3887 $x5986 (= ?x3893 (storage_t x_SLOAD_0 w_4 w_5 3 ?x1042)) (= ?x3770 (+ 200 ?x3804)) $x4459 $x4128 $x3704 $x4083 (= (stack_t x_SLOAD_0 w_4 w_5 5 (bvadd (_ bv63 6) ?x919)) ?x4079) (= (stack_t x_SLOAD_0 w_4 w_5 5 ?x5650) ?x4079) $x4037 (= (stack_t x_SLOAD_0 w_4 w_5 5 ?x1416) ?x3893) $x4016 (= ?x919 (bvadd (_ bv1 6) ?x9923)) $x4013 $x796 (= $x886 $x3983) $x73 $x3935 $x58 $x3764 $x3751 (not (and $x929 $x4020 $x889 $x3605))))))))))))))))))))))))))))))))))))))))))))))))))))))))))))))))))))))))))))))))))))))))))))))))))))))))))))))))))))))
 )
(check-sat)
(get-proof)
